; benchmark generated from python API
(set-info :status unknown)
(declare-datatypes ((IntState 0)) (((Mk1 (val1 Int)) (Mk2 (val2 Int)))))
 (declare-fun c_main_~i~6 () Int)
(declare-fun c_main_~k~6 () Int)
(declare-fun c_main_~j~6 () Int)
(assert
 (let (($x128 (<= c_main_~i~6 3)))
 (let (($x171 (exists ((main_~i~6_st IntState) (val!182 Int) )(let ((?x56 (val2 main_~i~6_st)))
 (let (($x5 (<= ?x56 4)))
 (let (($x141 (and (<= c_main_~j~6 (+ (* 2 ?x56) 2)) $x5 (<= ?x56 c_main_~k~6))))
 (let (($x52 (not (= main_~i~6_st (Mk1 val!182)))))
 (and $x52 $x141))))))
 ))
 (let (($x124 (<= c_main_~j~6 (+ (* 2 c_main_~i~6) 2))))
 (let (($x83 (<= c_main_~i~6 4)))
 (let (($x88 (<= c_main_~j~6 (+ (* 2 c_main_~i~6) 1))))
 (let (($x112 (exists ((v_nnf_98 Int) )(let (($x85 (<= c_main_~j~6 (+ (* 2 v_nnf_98) 2))))
 (let (($x118 (<= v_nnf_98 4)))
 (and (<= (+ v_nnf_98 3) c_main_~k~6) $x118 $x85))))
 ))
 (let ((?x93 (* 2 c_main_~i~6)))
 (let (($x163 (<= c_main_~j~6 ?x93)))
 (and (and $x88 $x83 $x124 $x163 $x128 $x112) (not (and $x88 $x83 $x124 $x171 $x128))))))))))))
(check-sat)
